55170.7
0 1 2 3 4 5 6 17 18 19 20 21 22 23 24 25 26 27 15 16 7 8 9 10 11 14 12 13 38 37 36 35 34 33 32 31 30 29 28 39 40 41 42 43 121 120 118 119 117 115 116 58 57 56 55 54 53 52 51 48 49 44 50 47 46 78 77 76 83 81 82 84 73 72 86 71 68 67 66 69 70 75 74 85 87 88 89 90 64 63 65 61 59 60 62 92 93 94 96 95 91 97 98 99 100 102 101 103 104 106 105 107 108 109 110 111 112 113 114 122 123 124 125 126 127 128 129 130 131 132 133 142 141 140 139 138 137 136 135 134 143 144 145 146 147 148 149 150 151 157 158 156 155 154 153 152 45 79 80 
